# Solution for model problem
# Objective value = 14
CLIENT_PE4_0 1
CLIENT_PE6_1 1
CLIENT_PE6_2 1
CLIENT_PE2_4 1
CLIENT_PE7_5 1
src_1 1
fft_1 1
matrix_0 1
ifft_1 1
fir_0 1
angle_1 1
road_0 1
table_1 1
sink_2 1
CLIENT_PE0_0 0
CLIENT_PE1_0 0
CLIENT_PE2_0 0
CLIENT_PE3_0 0
CLIENT_PE5_0 0
CLIENT_PE6_0 0
CLIENT_PE7_0 0
CLIENT_PE8_0 0
CLIENT_PE9_0 0
CLIENT_PE10_0 0
CLIENT_PE11_0 0
CLIENT_PE12_0 0
CLIENT_PE13_0 0
CLIENT_PE14_0 0
CLIENT_PE15_0 0
CLIENT_PE16_0 0
CLIENT_PE2_1 0
CLIENT_PE4_1 0
CLIENT_PE13_1 0
CLIENT_PE2_2 0
CLIENT_PE3_2 0
CLIENT_PE4_2 0
CLIENT_PE13_2 0
CLIENT_PE0_4 0
CLIENT_PE3_4 0
CLIENT_PE4_4 0
CLIENT_PE6_4 0
CLIENT_PE7_4 0
CLIENT_PE13_4 0
CLIENT_PE14_4 0
CLIENT_PE0_5 0
CLIENT_PE2_5 0
CLIENT_PE3_5 0
CLIENT_PE4_5 0
CLIENT_PE6_5 0
CLIENT_PE13_5 0
CLIENT_PE14_5 0
src_0 0
src_2 0
src_3 0
src_4 0
fft_0 0
fft_2 0
fft_3 0
fft_4 0
ifft_0 0
ifft_2 0
ifft_3 0
ifft_4 0
sink_0 0
sink_1 0
sink_3 0
sink_4 0
matrix_1 0
matrix_2 0
matrix_3 0
matrix_4 0
fir_1 0
fir_2 0
fir_3 0
fir_4 0
angle_0 0
angle_2 0
angle_3 0
angle_4 0
road_1 0
road_2 0
road_3 0
road_4 0
table_0 0
table_2 0
table_3 0
table_4 0
